\ Model facility relax lagrangian
\ LP format - for model browsing. Use MPS format to capture full model detail.
Minimize
  1.681884e+06 X[0] + 1.784469e+06 X[1] + 1.114504e+06 X[2] + 878026 X[3]
   + 1.085892e+06 X[4] + 973012 X[5] + 192691 Y[0,0] + 478379 Y[0,1]
   + 50404 Y[0,2] + 250709 Y[0,3] + 14631 Y[0,4] + 362100 Y[1,0]
   + 403047 Y[1,1] + 349062 Y[1,2] + 347529 Y[1,3] + 430884 Y[1,4]
   + 14463 Y[2,0] + 337207 Y[2,1] + 277746 Y[2,2] + 314774 Y[2,3]
   + 301190 Y[2,4] + 130399 Y[3,0] + 265157 Y[3,1] + 61654 Y[3,2]
   + 157122 Y[3,3] + 441849 Y[3,4] + 200935 Y[4,0] + 376053 Y[4,1]
   + 101461 Y[4,2] + 334977 Y[4,3] + 298787 Y[4,4] + 102200 Y[5,0]
   + 159677 Y[5,1] + 36838 Y[5,2] + 234737 Y[5,3] + 435203 Y[5,4]
Subject To
 Demand[0]: Y[0,0] + Y[1,0] + Y[2,0] + Y[3,0] + Y[4,0] + Y[5,0] = 1
 Demand[1]: Y[0,1] + Y[1,1] + Y[2,1] + Y[3,1] + Y[4,1] + Y[5,1] = 1
 Demand[2]: Y[0,2] + Y[1,2] + Y[2,2] + Y[3,2] + Y[4,2] + Y[5,2] = 1
 Demand[3]: Y[0,3] + Y[1,3] + Y[2,3] + Y[3,3] + Y[4,3] + Y[5,3] = 1
 Demand[4]: Y[0,4] + Y[1,4] + Y[2,4] + Y[3,4] + Y[4,4] + Y[5,4] = 1
Bounds
Binaries
 X[0] X[1] X[2] X[3] X[4] X[5] Y[0,0] Y[0,1] Y[0,2] Y[0,3] Y[0,4] Y[1,0]
 Y[1,1] Y[1,2] Y[1,3] Y[1,4] Y[2,0] Y[2,1] Y[2,2] Y[2,3] Y[2,4] Y[3,0]
 Y[3,1] Y[3,2] Y[3,3] Y[3,4] Y[4,0] Y[4,1] Y[4,2] Y[4,3] Y[4,4] Y[5,0]
 Y[5,1] Y[5,2] Y[5,3] Y[5,4]
End
